(set-logic QF_S)
(declare-fun var0 () String)
(declare-fun var1 () String)
(declare-fun var2 () String)
(declare-fun var3 () String)
(declare-fun var4 () String)
(declare-fun var5 () String)
(declare-fun var6 () String)
(declare-fun var7 () String)
(declare-fun var8 () String)
(declare-fun var9 () String)
(declare-fun var10 () String)
(declare-fun var11 () String)
(declare-fun var12 () String)
(declare-fun var13 () String)
(declare-fun var14 () String)
(declare-fun var15 () String)
(declare-fun var16 () String)
(declare-fun var17 () String)
(declare-fun var18 () String)
(declare-fun var19 () String)
(declare-fun var20 () String)
(declare-fun var21 () String)
(declare-fun var22 () String)
(declare-fun var23 () String)
(declare-fun var24 () String)
(declare-fun var25 () String)
(declare-fun var26 () String)
(declare-fun var27 () String)
(declare-fun var28 () String)
(declare-fun var29 () String)
(declare-fun var30 () String)
(declare-fun var31 () String)
(declare-fun var32 () String)
(declare-fun var33 () String)
(declare-fun var34 () String)
(declare-fun var35 () String)
(declare-fun var36 () String)
(declare-fun var37 () String)
(declare-fun var38 () String)
(declare-fun var39 () String)
(declare-fun var40 () String)
(declare-fun var41 () String)
(declare-fun var42 () String)
(declare-fun var43 () String)
(declare-fun var44 () String)
(declare-fun var45 () String)
(declare-fun var46 () String)
(declare-fun var47 () String)
(declare-fun var48 () String)
(declare-fun var49 () String)
(declare-fun var50 () String)
(declare-fun var51 () String)
(declare-fun var52 () String)
(declare-fun var53 () String)
(declare-fun var54 () String)
(declare-fun var55 () String)
(declare-fun var56 () String)
(declare-fun var57 () String)
(declare-fun var58 () String)
(declare-fun var59 () String)
(declare-fun var60 () String)
(declare-fun var61 () String)
(declare-fun var62 () String)
(declare-fun var63 () String)
(declare-fun var64 () String)
(declare-fun var65 () String)
(declare-fun var66 () String)
(declare-fun var67 () String)
(declare-fun var68 () String)
(declare-fun var69 () String)
(declare-fun var70 () String)
(declare-fun var71 () String)
(declare-fun var72 () String)
(declare-fun var73 () String)
(declare-fun var74 () String)
(declare-fun var75 () String)
(declare-fun var76 () String)
(declare-fun var77 () String)
(declare-fun var78 () String)
(declare-fun var79 () String)
(declare-fun var80 () String)
(declare-fun var81 () String)
(declare-fun var82 () String)
(declare-fun var83 () String)
(declare-fun var84 () String)
(declare-fun var85 () String)
(declare-fun var86 () String)
(declare-fun var87 () String)
(declare-fun var88 () String)
(declare-fun var89 () String)
(declare-fun var90 () String)
(declare-fun var91 () String)
(declare-fun var92 () String)
(declare-fun var93 () String)
(declare-fun var94 () String)
(declare-fun var95 () String)
(declare-fun var96 () String)
(declare-fun var97 () String)
(declare-fun var98 () String)
(declare-fun var99 () String)
(declare-fun var100 () String)
(declare-fun var101 () String)
(declare-fun var102 () String)
(declare-fun var103 () String)
(declare-fun var104 () String)
(declare-fun var105 () String)
(declare-fun var106 () String)
(declare-fun var107 () String)
(declare-fun var108 () String)
(declare-fun var109 () String)
(declare-fun var110 () String)
(declare-fun var111 () String)
(declare-fun var112 () String)
(declare-fun var113 () String)
(declare-fun var114 () String)
(declare-fun var115 () String)
(declare-fun var116 () String)
(declare-fun var117 () String)
(declare-fun var118 () String)
(declare-fun var119 () String)
(declare-fun var120 () String)
(declare-fun var121 () String)
(declare-fun var122 () String)
(declare-fun var123 () String)
(declare-fun var124 () String)
(declare-fun var125 () String)
(declare-fun var126 () String)
(declare-fun var127 () String)
(declare-fun var128 () String)
(declare-fun var129 () String)
(declare-fun var130 () String)
(declare-fun var131 () String)
(declare-fun var132 () String)
(declare-fun var133 () String)
(declare-fun var134 () String)
(declare-fun var135 () String)
(declare-fun var136 () String)
(declare-fun var137 () String)
(declare-fun var138 () String)
(declare-fun var139 () String)
(declare-fun var140 () String)
(declare-fun var141 () String)
(declare-fun var142 () String)
(declare-fun var143 () String)
(declare-fun var144 () String)
(declare-fun var145 () String)
(declare-fun var146 () String)
(declare-fun var147 () String)
(declare-fun var148 () String)
(declare-fun var149 () String)
(declare-fun var150 () String)
(declare-fun var151 () String)
(declare-fun var152 () String)
(declare-fun var153 () String)
(declare-fun var154 () String)
(declare-fun var155 () String)
(declare-fun var156 () String)
(declare-fun var157 () String)
(declare-fun var158 () String)
(declare-fun var159 () String)
(declare-fun var160 () String)
(declare-fun var161 () String)
(declare-fun var162 () String)
(declare-fun var163 () String)
(declare-fun var164 () String)
(declare-fun var165 () String)
(declare-fun var166 () String)
(declare-fun var167 () String)
(declare-fun var168 () String)
(declare-fun var169 () String)
(declare-fun var170 () String)
(declare-fun var171 () String)
(declare-fun var172 () String)
(declare-fun var173 () String)
(declare-fun var174 () String)
(declare-fun var175 () String)
(declare-fun var176 () String)
(declare-fun var177 () String)
(declare-fun var178 () String)
(declare-fun var179 () String)
(declare-fun var180 () String)
(declare-fun var181 () String)
(declare-fun var182 () String)
(declare-fun var183 () String)
(declare-fun var184 () String)
(declare-fun var185 () String)
(declare-fun var186 () String)
(declare-fun var187 () String)
(declare-fun var188 () String)
(declare-fun var189 () String)
(declare-fun var190 () String)
(declare-fun var191 () String)
(declare-fun var192 () String)
(declare-fun var193 () String)
(declare-fun var194 () String)
(declare-fun var195 () String)
(declare-fun var196 () String)
(declare-fun var197 () String)
(declare-fun var198 () String)
(declare-fun var199 () String)
(declare-fun var200 () String)
(declare-fun var201 () String)
(declare-fun var202 () String)
(declare-fun var203 () String)
(declare-fun var204 () String)
(declare-fun var205 () String)
(declare-fun var206 () String)
(declare-fun var207 () String)
(declare-fun var208 () String)
(declare-fun var209 () String)
(declare-fun var210 () String)
(declare-fun var211 () String)
(declare-fun var212 () String)
(declare-fun var213 () String)
(declare-fun var214 () String)
(declare-fun var215 () String)
(declare-fun var216 () String)
(declare-fun var217 () String)
(declare-fun var218 () String)
(declare-fun var219 () String)
(declare-fun var220 () String)
(declare-fun var221 () String)
(declare-fun var222 () String)
(declare-fun var223 () String)
(declare-fun var224 () String)
(declare-fun var225 () String)
(declare-fun var226 () String)
(declare-fun var227 () String)
(declare-fun var228 () String)
(declare-fun var229 () String)
(declare-fun var230 () String)
(declare-fun var231 () String)
(declare-fun var232 () String)
(declare-fun var233 () String)
(declare-fun var234 () String)
(declare-fun var235 () String)
(declare-fun var236 () String)
(declare-fun var237 () String)
(declare-fun var238 () String)
(declare-fun var239 () String)
(declare-fun var240 () String)
(declare-fun var241 () String)
(declare-fun var242 () String)
(declare-fun var243 () String)
(declare-fun var244 () String)
(declare-fun var245 () String)
(declare-fun var246 () String)
(declare-fun var247 () String)
(declare-fun var248 () String)
(declare-fun var249 () String)
(declare-fun var250 () String)
(declare-fun var251 () String)
(declare-fun var252 () String)
(declare-fun var253 () String)
(declare-fun var254 () String)
(declare-fun var255 () String)
(declare-fun var256 () String)
(declare-fun var257 () String)
(declare-fun var258 () String)
(declare-fun var259 () String)
(declare-fun var260 () String)
(declare-fun var261 () String)
(declare-fun var262 () String)
(declare-fun var263 () String)
(declare-fun var264 () String)
(declare-fun var265 () String)
(declare-fun var266 () String)
(declare-fun var267 () String)
(declare-fun var268 () String)
(declare-fun var269 () String)
(declare-fun var270 () String)
(declare-fun var271 () String)
(declare-fun var272 () String)
(declare-fun var273 () String)
(declare-fun var274 () String)
(declare-fun var275 () String)
(declare-fun var276 () String)
(declare-fun var277 () String)
(declare-fun var278 () String)
(declare-fun var279 () String)
(declare-fun var280 () String)
(declare-fun var281 () String)
(declare-fun var282 () String)
(declare-fun var283 () String)
(declare-fun var284 () String)
(declare-fun var285 () String)
(declare-fun var286 () String)
(declare-fun var287 () String)
(declare-fun var288 () String)
(declare-fun var289 () String)
(declare-fun var290 () String)
(declare-fun var291 () String)
(declare-fun var292 () String)
(declare-fun var293 () String)
(declare-fun var294 () String)
(declare-fun var295 () String)
(declare-fun var296 () String)
(declare-fun var297 () String)
(declare-fun var298 () String)
(declare-fun var299 () String)
(declare-fun var300 () String)
(declare-fun var301 () String)
(declare-fun var302 () String)
(declare-fun var303 () String)
(declare-fun var304 () String)
(declare-fun var305 () String)
(declare-fun var306 () String)
(declare-fun var307 () String)
(declare-fun var308 () String)
(declare-fun var309 () String)
(declare-fun var310 () String)
(declare-fun var311 () String)
(declare-fun var312 () String)
(declare-fun var313 () String)
(declare-fun var314 () String)
(declare-fun var315 () String)
(declare-fun var316 () String)
(declare-fun var317 () String)
(declare-fun var318 () String)
(declare-fun var319 () String)
(declare-fun var320 () String)
(declare-fun var321 () String)
(declare-fun var322 () String)
(declare-fun var323 () String)
(declare-fun var324 () String)
(declare-fun var325 () String)
(declare-fun var326 () String)
(declare-fun var327 () String)
(declare-fun var328 () String)
(declare-fun var329 () String)
(declare-fun var330 () String)
(declare-fun var331 () String)
(declare-fun var332 () String)
(declare-fun var333 () String)
(declare-fun var334 () String)
(declare-fun var335 () String)
(declare-fun var336 () String)
(declare-fun var337 () String)
(declare-fun var338 () String)
(declare-fun var339 () String)
(declare-fun var340 () String)
(declare-fun var341 () String)
(declare-fun var342 () String)
(declare-fun var343 () String)
(declare-fun var344 () String)
(declare-fun var345 () String)
(declare-fun var346 () String)
(declare-fun var347 () String)
(declare-fun var348 () String)
(declare-fun var349 () String)
(declare-fun var350 () String)
(declare-fun var351 () String)
(declare-fun var352 () String)
(declare-fun var353 () String)
(declare-fun var354 () String)
(declare-fun var355 () String)
(declare-fun var356 () String)
(declare-fun var357 () String)
(declare-fun var358 () String)
(declare-fun var359 () String)
(declare-fun var360 () String)
(declare-fun var361 () String)
(declare-fun var362 () String)
(declare-fun var363 () String)
(declare-fun var364 () String)
(declare-fun var365 () String)
(declare-fun var366 () String)
(declare-fun var367 () String)
(declare-fun var368 () String)
(declare-fun var369 () String)
(declare-fun var370 () String)
(declare-fun var371 () String)
(declare-fun var372 () String)
(declare-fun var373 () String)
(declare-fun var374 () String)
(declare-fun var375 () String)
(declare-fun var376 () String)
(declare-fun var377 () String)
(declare-fun var378 () String)
(declare-fun var379 () String)
(declare-fun var380 () String)
(declare-fun var381 () String)
(declare-fun var382 () String)
(declare-fun var383 () String)
(declare-fun var384 () String)
(declare-fun var385 () String)
(declare-fun var386 () String)
(declare-fun var387 () String)
(declare-fun var388 () String)
(declare-fun var389 () String)
(assert (= 37 (Length var0)))
(assert (= 44 (Length var1)))
(assert (= 61 (Length var2)))
(assert (= 90 (Length var3)))
(assert (= 53 (Length var4)))
(assert (= 46 (Length var5)))
(assert (= 86 (Length var6)))
(assert (= 50 (Length var7)))
(assert (= 40 (Length var8)))
(assert (= 11 (Length var9)))
(assert (= 9 (Length var10)))
(assert (= 78 (Length var11)))
(assert (= 66 (Length var12)))
(assert (= 2 (Length var13)))
(assert (= 64 (Length var14)))
(assert (= 50 (Length var15)))
(assert (= 21 (Length var16)))
(assert (= 25 (Length var17)))
(assert (= 43 (Length var18)))
(assert (= 85 (Length var19)))
(assert (= 55 (Length var20)))
(assert (= 68 (Length var21)))
(assert (= 32 (Length var22)))
(assert (= 94 (Length var23)))
(assert (= 13 (Length var24)))
(assert (= 59 (Length var25)))
(assert (= 3 (Length var26)))
(assert (= 75 (Length var27)))
(assert (= 76 (Length var28)))
(assert (= 88 (Length var29)))
(assert (= 61 (Length var30)))
(assert (= 55 (Length var31)))
(assert (= 35 (Length var32)))
(assert (= 13 (Length var33)))
(assert (= 97 (Length var34)))
(assert (= 57 (Length var35)))
(assert (= 93 (Length var36)))
(assert (= 96 (Length var37)))
(assert (= 21 (Length var38)))
(assert (= 75 (Length var39)))
(assert (= 55 (Length var40)))
(assert (= 12 (Length var41)))
(assert (= 2 (Length var42)))
(assert (= 0 (Length var43)))
(assert (= 24 (Length var44)))
(assert (= 19 (Length var45)))
(assert (= 26 (Length var46)))
(assert (= 36 (Length var47)))
(assert (= 75 (Length var48)))
(assert (= 41 (Length var49)))
(assert (= 45 (Length var50)))
(assert (= 94 (Length var51)))
(assert (= 89 (Length var52)))
(assert (= 98 (Length var53)))
(assert (= 16 (Length var54)))
(assert (= 55 (Length var55)))
(assert (= 21 (Length var56)))
(assert (= 61 (Length var57)))
(assert (= 71 (Length var58)))
(assert (= 71 (Length var59)))
(assert (= 52 (Length var60)))
(assert (= 40 (Length var61)))
(assert (= 86 (Length var62)))
(assert (= 92 (Length var63)))
(assert (= 70 (Length var64)))
(assert (= 73 (Length var65)))
(assert (= 7 (Length var66)))
(assert (= 52 (Length var67)))
(assert (= 74 (Length var68)))
(assert (= 61 (Length var69)))
(assert (= 18 (Length var70)))
(assert (= 5 (Length var71)))
(assert (= 77 (Length var72)))
(assert (= 97 (Length var73)))
(assert (= 51 (Length var74)))
(assert (= 71 (Length var75)))
(assert (= 9 (Length var76)))
(assert (= 97 (Length var77)))
(assert (= 9 (Length var78)))
(assert (= 93 (Length var79)))
(assert (= 70 (Length var80)))
(assert (= 74 (Length var81)))
(assert (= 0 (Length var82)))
(assert (= 46 (Length var83)))
(assert (= 98 (Length var84)))
(assert (= 72 (Length var85)))
(assert (= 79 (Length var86)))
(assert (= 60 (Length var87)))
(assert (= 77 (Length var88)))
(assert (= 62 (Length var89)))
(assert (= 19 (Length var90)))
(assert (= 74 (Length var91)))
(assert (= 74 (Length var92)))
(assert (= 95 (Length var93)))
(assert (= 49 (Length var94)))
(assert (= 58 (Length var95)))
(assert (= 48 (Length var96)))
(assert (= 1 (Length var97)))
(assert (= 15 (Length var98)))
(assert (= 64 (Length var99)))
(assert (= 95 (Length var100)))
(assert (= 14 (Length var101)))
(assert (= 34 (Length var102)))
(assert (= 37 (Length var103)))
(assert (= 31 (Length var104)))
(assert (= 16 (Length var105)))
(assert (= 43 (Length var106)))
(assert (= 50 (Length var107)))
(assert (= 10 (Length var108)))
(assert (= 87 (Length var109)))
(assert (= 72 (Length var110)))
(assert (= 72 (Length var111)))
(assert (= 31 (Length var112)))
(assert (= 26 (Length var113)))
(assert (= 0 (Length var114)))
(assert (= 16 (Length var115)))
(assert (= 81 (Length var116)))
(assert (= 0 (Length var117)))
(assert (= 36 (Length var118)))
(assert (= 33 (Length var119)))
(assert (= 33 (Length var120)))
(assert (= 33 (Length var121)))
(assert (= 28 (Length var122)))
(assert (= 90 (Length var123)))
(assert (= 85 (Length var124)))
(assert (= 81 (Length var125)))
(assert (= 86 (Length var126)))
(assert (= 0 (Length var127)))
(assert (= 2 (Length var128)))
(assert (= 99 (Length var129)))
(assert (= 22 (Length var130)))
(assert (= 88 (Length var131)))
(assert (= 51 (Length var132)))
(assert (= 23 (Length var133)))
(assert (= 7 (Length var134)))
(assert (= 42 (Length var135)))
(assert (= 73 (Length var136)))
(assert (= 91 (Length var137)))
(assert (= 97 (Length var138)))
(assert (= 17 (Length var139)))
(assert (= 99 (Length var140)))
(assert (= 16 (Length var141)))
(assert (= 39 (Length var142)))
(assert (= 85 (Length var143)))
(assert (= 2 (Length var144)))
(assert (= 72 (Length var145)))
(assert (= 47 (Length var146)))
(assert (= 58 (Length var147)))
(assert (= 72 (Length var148)))
(assert (= 17 (Length var149)))
(assert (= 67 (Length var150)))
(assert (= 38 (Length var151)))
(assert (= 36 (Length var152)))
(assert (= 100 (Length var153)))
(assert (= 54 (Length var154)))
(assert (= 39 (Length var155)))
(assert (= 32 (Length var156)))
(assert (= 68 (Length var157)))
(assert (= 68 (Length var158)))
(assert (= 37 (Length var159)))
(assert (= 80 (Length var160)))
(assert (= 49 (Length var161)))
(assert (= 71 (Length var162)))
(assert (= 14 (Length var163)))
(assert (= 70 (Length var164)))
(assert (= 19 (Length var165)))
(assert (= 16 (Length var166)))
(assert (= 31 (Length var167)))
(assert (= 9 (Length var168)))
(assert (= 51 (Length var169)))
(assert (= 64 (Length var170)))
(assert (= 17 (Length var171)))
(assert (= 33 (Length var172)))
(assert (= 60 (Length var173)))
(assert (= 25 (Length var174)))
(assert (= 35 (Length var175)))
(assert (= 75 (Length var176)))
(assert (= 49 (Length var177)))
(assert (= 55 (Length var178)))
(assert (= 29 (Length var179)))
(assert (= 14 (Length var180)))
(assert (= 92 (Length var181)))
(assert (= 34 (Length var182)))
(assert (= 59 (Length var183)))
(assert (= 11 (Length var184)))
(assert (= 10 (Length var185)))
(assert (= 75 (Length var186)))
(assert (= 24 (Length var187)))
(assert (= 30 (Length var188)))
(assert (= 44 (Length var189)))
(assert (= 57 (Length var190)))
(assert (= 40 (Length var191)))
(assert (= 86 (Length var192)))
(assert (= 45 (Length var193)))
(assert (= 76 (Length var194)))
(assert (= 64 (Length var195)))
(assert (= 78 (Length var196)))
(assert (= 24 (Length var197)))
(assert (= 28 (Length var198)))
(assert (= 4 (Length var199)))
(assert (= 97 (Length var200)))
(assert (= 63 (Length var201)))
(assert (= 85 (Length var202)))
(assert (= 3 (Length var203)))
(assert (= 69 (Length var204)))
(assert (= 3 (Length var205)))
(assert (= 38 (Length var206)))
(assert (= 100 (Length var207)))
(assert (= 94 (Length var208)))
(assert (= 83 (Length var209)))
(assert (= 29 (Length var210)))
(assert (= 59 (Length var211)))
(assert (= 46 (Length var212)))
(assert (= 91 (Length var213)))
(assert (= 49 (Length var214)))
(assert (= 50 (Length var215)))
(assert (= 84 (Length var216)))
(assert (= 0 (Length var217)))
(assert (= 91 (Length var218)))
(assert (= 100 (Length var219)))
(assert (= 34 (Length var220)))
(assert (= 41 (Length var221)))
(assert (= 37 (Length var222)))
(assert (= 24 (Length var223)))
(assert (= 81 (Length var224)))
(assert (= 59 (Length var225)))
(assert (= 13 (Length var226)))
(assert (= 64 (Length var227)))
(assert (= 27 (Length var228)))
(assert (= 40 (Length var229)))
(assert (= 44 (Length var230)))
(assert (= 50 (Length var231)))
(assert (= 60 (Length var232)))
(assert (= 43 (Length var233)))
(assert (= 95 (Length var234)))
(assert (= 60 (Length var235)))
(assert (= 84 (Length var236)))
(assert (= 96 (Length var237)))
(assert (= 88 (Length var238)))
(assert (= 44 (Length var239)))
(assert (= 2 (Length var240)))
(assert (= 21 (Length var241)))
(assert (= 95 (Length var242)))
(assert (= 76 (Length var243)))
(assert (= 49 (Length var244)))
(assert (= 38 (Length var245)))
(assert (= 51 (Length var246)))
(assert (= 86 (Length var247)))
(assert (= 67 (Length var248)))
(assert (= 43 (Length var249)))
(assert (= 2 (Length var250)))
(assert (= 82 (Length var251)))
(assert (= 13 (Length var252)))
(assert (= 33 (Length var253)))
(assert (= 83 (Length var254)))
(assert (= 24 (Length var255)))
(assert (= 95 (Length var256)))
(assert (= 30 (Length var257)))
(assert (= 92 (Length var258)))
(assert (= 11 (Length var259)))
(assert (= 5 (Length var260)))
(assert (= 68 (Length var261)))
(assert (= 73 (Length var262)))
(assert (= 54 (Length var263)))
(assert (= 97 (Length var264)))
(assert (= 44 (Length var265)))
(assert (= 86 (Length var266)))
(assert (= 41 (Length var267)))
(assert (= 0 (Length var268)))
(assert (= 45 (Length var269)))
(assert (= 0 (Length var270)))
(assert (= 1 (Length var271)))
(assert (= 29 (Length var272)))
(assert (= 76 (Length var273)))
(assert (= 32 (Length var274)))
(assert (= 100 (Length var275)))
(assert (= 98 (Length var276)))
(assert (= 3 (Length var277)))
(assert (= 73 (Length var278)))
(assert (= 39 (Length var279)))
(assert (= 78 (Length var280)))
(assert (= 84 (Length var281)))
(assert (= 10 (Length var282)))
(assert (= 67 (Length var283)))
(assert (= 12 (Length var284)))
(assert (= 34 (Length var285)))
(assert (= 33 (Length var286)))
(assert (= 54 (Length var287)))
(assert (= 91 (Length var288)))
(assert (= 48 (Length var289)))
(assert (= 88 (Length var290)))
(assert (= 43 (Length var291)))
(assert (= 59 (Length var292)))
(assert (= 89 (Length var293)))
(assert (= 64 (Length var294)))
(assert (= 9 (Length var295)))
(assert (= 79 (Length var296)))
(assert (= 32 (Length var297)))
(assert (= 64 (Length var298)))
(assert (= 8 (Length var299)))
(assert (= 59 (Length var300)))
(assert (= 59 (Length var301)))
(assert (= 69 (Length var302)))
(assert (= 9 (Length var303)))
(assert (= 23 (Length var304)))
(assert (= 87 (Length var305)))
(assert (= 84 (Length var306)))
(assert (= 38 (Length var307)))
(assert (= 89 (Length var308)))
(assert (= 26 (Length var309)))
(assert (= 100 (Length var310)))
(assert (= 51 (Length var311)))
(assert (= 75 (Length var312)))
(assert (= 62 (Length var313)))
(assert (= 89 (Length var314)))
(assert (= 28 (Length var315)))
(assert (= 67 (Length var316)))
(assert (= 62 (Length var317)))
(assert (= 99 (Length var318)))
(assert (= 15 (Length var319)))
(assert (= 87 (Length var320)))
(assert (= 64 (Length var321)))
(assert (= 78 (Length var322)))
(assert (= 94 (Length var323)))
(assert (= 82 (Length var324)))
(assert (= 4 (Length var325)))
(assert (= 69 (Length var326)))
(assert (= 57 (Length var327)))
(assert (= 38 (Length var328)))
(assert (= 72 (Length var329)))
(assert (= 17 (Length var330)))
(assert (= 59 (Length var331)))
(assert (= 40 (Length var332)))
(assert (= 83 (Length var333)))
(assert (= 95 (Length var334)))
(assert (= 6 (Length var335)))
(assert (= 78 (Length var336)))
(assert (= 74 (Length var337)))
(assert (= 89 (Length var338)))
(assert (= 21 (Length var339)))
(assert (= 82 (Length var340)))
(assert (= 40 (Length var341)))
(assert (= 26 (Length var342)))
(assert (= 47 (Length var343)))
(assert (= 53 (Length var344)))
(assert (= 8 (Length var345)))
(assert (= 22 (Length var346)))
(assert (= 66 (Length var347)))
(assert (= 28 (Length var348)))
(assert (= 42 (Length var349)))
(assert (= 41 (Length var350)))
(assert (= 52 (Length var351)))
(assert (= 65 (Length var352)))
(assert (= 69 (Length var353)))
(assert (= 12 (Length var354)))
(assert (= 68 (Length var355)))
(assert (= 21 (Length var356)))
(assert (= 69 (Length var357)))
(assert (= 20 (Length var358)))
(assert (= 100 (Length var359)))
(assert (= 63 (Length var360)))
(assert (= 83 (Length var361)))
(assert (= 76 (Length var362)))
(assert (= 26 (Length var363)))
(assert (= 42 (Length var364)))
(assert (= 64 (Length var365)))
(assert (= 18 (Length var366)))
(assert (= 6 (Length var367)))
(assert (= 29 (Length var368)))
(assert (= 54 (Length var369)))
(assert (= 69 (Length var370)))
(assert (= 22 (Length var371)))
(assert (= 5 (Length var372)))
(assert (= 46 (Length var373)))
(assert (= 20 (Length var374)))
(assert (= 3 (Length var375)))
(assert (= 92 (Length var376)))
(assert (= 82 (Length var377)))
(assert (= 54 (Length var378)))
(assert (= 95 (Length var379)))
(assert (= 40 (Length var380)))
(assert (= 40 (Length var381)))
(assert (= 63 (Length var382)))
(assert (= 78 (Length var383)))
(assert (= 85 (Length var384)))
(assert (= 12 (Length var385)))
(assert (= 94 (Length var386)))
(assert (= 86 (Length var387)))
(assert (= 21 (Length var388)))
(assert (= 32 (Length var389)))
(assert (= 59 (Length (Concat var15 var10))))
(assert (= 24 (Length (Concat var144 var130))))
(assert (= 152 (Length (Concat var321 var238))))
(assert (= 96 (Length (Concat var241 var27))))
(assert (= 129 (Length (Concat var179 var359))))
(assert (= 120 (Length (Concat var5 var68))))
(assert (= 107 (Length (Concat var57 var373))))
(assert (= 130 (Length (Concat var1 var247))))
(assert (= 85 (Length (Concat var30 var255))))
(assert (= 67 (Length (Concat var203 var294))))
(assert (= 134 (Length (Concat var279 var234))))
(assert (= 121 (Length (Concat var344 var261))))
(assert (= 128 (Length (Concat var208 var182))))
(assert (= 82 (Length (Concat var32 var343))))
(assert (= 53 (Length (Concat var297 var356))))
(assert (= 81 (Length (Concat var188 var132))))
(assert (= 92 (Length (Concat var177 var249))))
(assert (= 116 (Length (Concat var162 var193))))
(assert (= 123 (Length (Concat var86 var230))))
(assert (= 7 (Length (Concat var250 var71))))
(assert (= 96 (Length (Concat var201 var253))))
(assert (= 169 (Length (Concat var337 var334))))
(assert (= 94 (Length (Concat var69 var119))))
(assert (= 101 (Length (Concat var264 var325))))
(assert (= 168 (Length (Concat var81 var323))))
(assert (= 42 (Length (Concat var142 var375))))
(assert (= 115 (Length (Concat var290 var228))))
(assert (= 120 (Length (Concat var23 var363))))
(assert (= 172 (Length (Concat var111 var153))))
(assert (= 105 (Length (Concat var267 var227))))
(assert (= 91 (Length (Concat var387 var260))))
(assert (= 68 (Length (Concat var47 var274))))
(assert (= 152 (Length (Concat var204 var361))))
(assert (= 35 (Length (Concat var175 var217))))
(assert (= 46 (Length (Concat var97 var50))))
(assert (= 87 (Length (Concat var145 var98))))
(assert (= 169 (Length (Concat var88 var258))))
(assert (= 67 (Length (Concat var244 var366))))
(assert (= 74 (Length (Concat var152 var245))))
(check-sat)